;(set-option :produce-unsat-cores true )
(set-logic ALL_SUPPORTED )
(declare-sort A$ 0 )
(declare-sort A_set$ 0 )
(declare-sort A_llist_set$ 0 )
(declare-sort A_llist_llist_set$ 0 )
(declare-sort A_llist_llist_llist_set$ 0 )
(declare-sort A_llist_llist_llist_llist_set$ 0 )
(declare-sort A_llist$ 0)
(declare-sort A_llist_llist$ 0)
(declare-sort A_llist_llist_llist$ 0)
(declare-sort A_llist_llist_llist_llist$ 0)
(declare-fun lNil$ ()A_llist$)
(declare-fun lhd$ (A_llist$)A$)
(declare-fun ltl$ (A_llist$)A_llist$)
(declare-fun lCons$ (A$ A_llist$ )A_llist$)
(declare-fun lNil$a ()A_llist_llist$)
(declare-fun lhd$a (A_llist_llist$)A_llist$)
(declare-fun ltl$a (A_llist_llist$)A_llist_llist$)
(declare-fun lCons$a (A_llist$ A_llist_llist$ )A_llist_llist$)
(declare-fun lNil$b ()A_llist_llist_llist$)
(declare-fun lhd$b (A_llist_llist_llist$)A_llist_llist$)
(declare-fun ltl$b (A_llist_llist_llist$)A_llist_llist_llist$)
(declare-fun lCons$b (A_llist_llist$ A_llist_llist_llist$ )A_llist_llist_llist$)
(declare-fun lNil$c ()A_llist_llist_llist_llist$)
(declare-fun lhd$c (A_llist_llist_llist_llist$)A_llist_llist_llist$)
(declare-fun ltl$c (A_llist_llist_llist_llist$)A_llist_llist_llist_llist$)
(declare-fun lCons$c (A_llist_llist_llist$ A_llist_llist_llist_llist$ )A_llist_llist_llist_llist$)
(declare-fun a$ ()A_set$ )
(declare-fun l$ ()A_llist$ )
(declare-fun r$ ()A_llist$ )
(declare-fun a$a ()A$ )
(declare-fun sa$ ()A_llist$ )
(declare-fun member$ (A_llist$ A_llist_set$ )Bool )
(declare-fun alllsts$ (A_llist_llist_set$ )A_llist_llist_llist_set$ )
(declare-fun finlsts$ (A_set$ )A_llist_set$ )
(declare-fun inflsts$ (A_set$ )A_llist_set$ )
(declare-fun lappend$ (A_llist$ A_llist$ )A_llist$ )
(declare-fun member$a (A$ A_set$ )Bool )
(declare-fun member$b (A_llist_llist_llist$ A_llist_llist_llist_set$ )Bool )
(declare-fun member$c (A_llist_llist$ A_llist_llist_set$ )Bool )
(declare-fun member$d (A_llist_llist_llist_llist$ A_llist_llist_llist_llist_set$ )Bool )
(declare-fun alllsts$a (A_llist_set$ )A_llist_llist_set$ )
(declare-fun alllsts$b (A_set$ )A_llist_set$ )
(declare-fun finlsts$a (A_llist_llist_set$ )A_llist_llist_llist_set$ )
(declare-fun finlsts$b (A_llist_set$ )A_llist_llist_set$ )
(declare-fun inflsts$a (A_llist_llist_set$ )A_llist_llist_llist_set$ )
(declare-fun inflsts$b (A_llist_set$ )A_llist_llist_set$ )
(declare-fun inflsts$c (A_llist_llist_llist_set$ )A_llist_llist_llist_llist_set$ )
(declare-fun lappend$a (A_llist_llist_llist$ A_llist_llist_llist$ )A_llist_llist_llist$ )
(declare-fun lappend$b (A_llist_llist$ A_llist_llist$ )A_llist_llist$ )
(assert (! (not (member$ (lappend$ l$ sa$ )(inflsts$ a$ ))):named a0 ))
(assert (! (member$a a$a a$ ):named a1 ))
(assert (! (member$ (lCons$ a$a (lappend$ l$ sa$ ))(inflsts$ a$ )):named a2 ))
(assert (! (forall ((?v0 A_llist$ ))(=> (member$ (lappend$ l$ ?v0 )(inflsts$ a$ ))(member$ ?v0 (inflsts$ a$ )))):named a3 ))
(assert (! (member$ (lappend$ (lCons$ a$a l$ )sa$ )(inflsts$ a$ )):named a4 ))
(assert (! (forall ((?v0 A_llist_llist_llist$ )(?v1 A_llist_llist_set$ )(?v2 A_llist_llist_llist$ ))(=> (member$b ?v0 (inflsts$a ?v1 ))(= (lappend$a ?v0 ?v2 )?v0 ))):named a5 ))
(assert (! (forall ((?v0 A_llist_llist$ )(?v1 A_llist_set$ )(?v2 A_llist_llist$ ))(=> (member$c ?v0 (inflsts$b ?v1 ))(= (lappend$b ?v0 ?v2 )?v0 ))):named a6 ))
(assert (! (forall ((?v0 A_llist$ )(?v1 A_set$ )(?v2 A_llist$ ))(=> (member$ ?v0 (inflsts$ ?v1 ))(= (lappend$ ?v0 ?v2 )?v0 ))):named a7 ))
(assert (! (member$ l$ (finlsts$ a$ )):named a8 ))
(assert (! (member$ r$ (finlsts$ a$ )):named a9 ))
(assert (! (forall ((?v0 A_llist_llist_llist_llist$ )(?v1 A_llist_llist_llist_set$ ))(=> (and (member$d ?v0 (inflsts$c ?v1 ))(forall ((?v2 A_llist_llist_llist$ )(?v3 A_llist_llist_llist_llist$ ))(=> (and (member$d ?v3 (inflsts$c ?v1 ))(and (member$b ?v2 ?v1 )(= ?v0 (lCons$c ?v2 ?v3 ))))false )))false )):named a10 ))
(assert (! (forall ((?v0 A_llist_llist_llist$ )(?v1 A_llist_llist_set$ ))(=> (and (member$b ?v0 (inflsts$a ?v1 ))(forall ((?v2 A_llist_llist$ )(?v3 A_llist_llist_llist$ ))(=> (and (member$b ?v3 (inflsts$a ?v1 ))(and (member$c ?v2 ?v1 )(= ?v0 (lCons$b ?v2 ?v3 ))))false )))false )):named a11 ))
(assert (! (forall ((?v0 A_llist_llist$ )(?v1 A_llist_set$ ))(=> (and (member$c ?v0 (inflsts$b ?v1 ))(forall ((?v2 A_llist$ )(?v3 A_llist_llist$ ))(=> (and (member$c ?v3 (inflsts$b ?v1 ))(and (member$ ?v2 ?v1 )(= ?v0 (lCons$a ?v2 ?v3 ))))false )))false )):named a12 ))
(assert (! (forall ((?v0 A_llist$ )(?v1 A_set$ ))(=> (and (member$ ?v0 (inflsts$ ?v1 ))(forall ((?v2 A$ )(?v3 A_llist$ ))(=> (and (member$ ?v3 (inflsts$ ?v1 ))(and (member$a ?v2 ?v1 )(= ?v0 (lCons$ ?v2 ?v3 ))))false )))false )):named a13 ))
(assert (! (forall ((?v0 A_llist_llist_llist$ )(?v1 A_llist_llist_llist_set$ )(?v2 A_llist_llist_llist_llist$ ))(=> (and (member$b ?v0 ?v1 )(member$d ?v2 (inflsts$c ?v1 )))(member$d (lCons$c ?v0 ?v2 )(inflsts$c ?v1 )))):named a14 ))
(assert (! (forall ((?v0 A_llist_llist$ )(?v1 A_llist_llist_set$ )(?v2 A_llist_llist_llist$ ))(=> (and (member$c ?v0 ?v1 )(member$b ?v2 (inflsts$a ?v1 )))(member$b (lCons$b ?v0 ?v2 )(inflsts$a ?v1 )))):named a15 ))
(assert (! (forall ((?v0 A_llist$ )(?v1 A_llist_set$ )(?v2 A_llist_llist$ ))(=> (and (member$ ?v0 ?v1 )(member$c ?v2 (inflsts$b ?v1 )))(member$c (lCons$a ?v0 ?v2 )(inflsts$b ?v1 )))):named a16 ))
(assert (! (forall ((?v0 A$ )(?v1 A_set$ )(?v2 A_llist$ ))(=> (and (member$a ?v0 ?v1 )(member$ ?v2 (inflsts$ ?v1 )))(member$ (lCons$ ?v0 ?v2 )(inflsts$ ?v1 )))):named a17 ))
(assert (! (forall ((?v0 A_llist_llist$ )(?v1 A_llist_llist$ )(?v2 A_llist_llist$ ))(= (lappend$b (lappend$b ?v0 ?v1 )?v2 )(lappend$b ?v0 (lappend$b ?v1 ?v2 )))):named a18 ))
(assert (! (forall ((?v0 A_llist$ )(?v1 A_llist$ )(?v2 A_llist$ ))(= (lappend$ (lappend$ ?v0 ?v1 )?v2 )(lappend$ ?v0 (lappend$ ?v1 ?v2 )))):named a19 ))
(assert (! (forall ((?v0 A_llist_llist_llist$ )(?v1 A_llist_llist_set$ )(?v2 A_llist_llist_llist$ ))(=> (and (member$b ?v0 (finlsts$a ?v1 ))(member$b ?v2 (inflsts$a ?v1 )))(member$b (lappend$a ?v0 ?v2 )(inflsts$a ?v1 )))):named a20 ))
(assert (! (forall ((?v0 A_llist_llist$ )(?v1 A_llist_set$ )(?v2 A_llist_llist$ ))(=> (and (member$c ?v0 (finlsts$b ?v1 ))(member$c ?v2 (inflsts$b ?v1 )))(member$c (lappend$b ?v0 ?v2 )(inflsts$b ?v1 )))):named a21 ))
(assert (! (forall ((?v0 A_llist$ )(?v1 A_set$ )(?v2 A_llist$ ))(=> (and (member$ ?v0 (finlsts$ ?v1 ))(member$ ?v2 (inflsts$ ?v1 )))(member$ (lappend$ ?v0 ?v2 )(inflsts$ ?v1 )))):named a22 ))
(assert (! (forall ((?v0 A_llist_llist$ )(?v1 A_llist_llist_llist$ )(?v2 A_llist_llist_llist$ ))(! (= (lappend$a (lCons$b ?v0 ?v1 )?v2 )(lCons$b ?v0 (lappend$a ?v1 ?v2 ))):pattern ((lappend$a (lCons$b ?v0 ?v1 )?v2 )))):named a23 ))
(assert (! (forall ((?v0 A_llist$ )(?v1 A_llist_llist$ )(?v2 A_llist_llist$ ))(! (= (lappend$b (lCons$a ?v0 ?v1 )?v2 )(lCons$a ?v0 (lappend$b ?v1 ?v2 ))):pattern ((lappend$b (lCons$a ?v0 ?v1 )?v2 )))):named a24 ))
(assert (! (forall ((?v0 A$ )(?v1 A_llist$ )(?v2 A_llist$ ))(! (= (lappend$ (lCons$ ?v0 ?v1 )?v2 )(lCons$ ?v0 (lappend$ ?v1 ?v2 ))):pattern ((lappend$ (lCons$ ?v0 ?v1 )?v2 )))):named a25 ))
(assert (! (forall ((?v0 A_llist_llist_llist$ )(?v1 A_llist_llist_set$ ))(=> (member$b ?v0 (inflsts$a ?v1 ))(member$b ?v0 (alllsts$ ?v1 )))):named a26 ))
(assert (! (forall ((?v0 A_llist_llist$ )(?v1 A_llist_set$ ))(=> (member$c ?v0 (inflsts$b ?v1 ))(member$c ?v0 (alllsts$a ?v1 )))):named a27 ))
(assert (! (forall ((?v0 A_llist$ )(?v1 A_set$ ))(=> (member$ ?v0 (inflsts$ ?v1 ))(member$ ?v0 (alllsts$b ?v1 )))):named a28 ))
(assert (! (forall ((?v0 A_llist_llist_llist$ )(?v1 A_llist_llist_llist$ )(?v2 A_llist_llist_set$ ))(= (member$b (lappend$a ?v0 ?v1 )(finlsts$a ?v2 ))(and (member$b ?v0 (finlsts$a ?v2 ))(member$b ?v1 (finlsts$a ?v2 ))))):named a29 ))
(assert (! (forall ((?v0 A_llist_llist$ )(?v1 A_llist_llist$ )(?v2 A_llist_set$ ))(= (member$c (lappend$b ?v0 ?v1 )(finlsts$b ?v2 ))(and (member$c ?v0 (finlsts$b ?v2 ))(member$c ?v1 (finlsts$b ?v2 ))))):named a30 ))
(assert (! (forall ((?v0 A_llist$ )(?v1 A_llist$ )(?v2 A_set$ ))(= (member$ (lappend$ ?v0 ?v1 )(finlsts$ ?v2 ))(and (member$ ?v0 (finlsts$ ?v2 ))(member$ ?v1 (finlsts$ ?v2 ))))):named a31 ))
(assert (! (forall ((?v0 A_llist_llist_llist$ )(?v1 A_llist_llist_set$ )(?v2 A_llist_llist_llist$ )(?v3 A_llist_llist_llist$ ))(=> (member$b ?v0 (finlsts$a ?v1 ))(= (= (lappend$a ?v0 ?v2 )(lappend$a ?v0 ?v3 ))(= ?v2 ?v3 )))):named a32 ))
(assert (! (forall ((?v0 A_llist_llist$ )(?v1 A_llist_set$ )(?v2 A_llist_llist$ )(?v3 A_llist_llist$ ))(=> (member$c ?v0 (finlsts$b ?v1 ))(= (= (lappend$b ?v0 ?v2 )(lappend$b ?v0 ?v3 ))(= ?v2 ?v3 )))):named a33 ))
(assert (! (forall ((?v0 A_llist$ )(?v1 A_set$ )(?v2 A_llist$ )(?v3 A_llist$ ))(=> (member$ ?v0 (finlsts$ ?v1 ))(= (= (lappend$ ?v0 ?v2 )(lappend$ ?v0 ?v3 ))(= ?v2 ?v3 )))):named a34 ))
(assert (! (forall ((?v0 A_llist_llist$ )(?v1 A_llist_llist$ ))(= (= lNil$a (lappend$b ?v0 ?v1 ))(and (= ?v0 lNil$a )(= ?v1 lNil$a )))):named a35 ))
(assert (! (forall ((?v0 A_llist$ )(?v1 A_llist$ ))(= (= lNil$ (lappend$ ?v0 ?v1 ))(and (= ?v0 lNil$ )(= ?v1 lNil$ )))):named a36 ))
(assert (! (forall ((?v0 A_llist_llist$ )(?v1 A_llist_llist$ ))(= (= (lappend$b ?v0 ?v1 )lNil$a )(and (= ?v0 lNil$a )(= ?v1 lNil$a )))):named a37 ))
(assert (! (forall ((?v0 A_llist$ )(?v1 A_llist$ ))(= (= (lappend$ ?v0 ?v1 )lNil$ )(and (= ?v0 lNil$ )(= ?v1 lNil$ )))):named a38 ))
(check-sat )
;(get-unsat-core )
